NAME : local_7
TYPE : ATSP
DIMENSION : 11
EDGE_WEIGHT_TYPE : EXPLICIT
EDGE_WEIGHT_FORMAT : FULL_MATRIX
EDGE_WEIGHT_SECTION
0 368 10000000 472 632 689 764 10000000 766 10000000 945 
0 0 743 751 935 915 410 10000000 668 10000000 1063 
0 743 0 10000000 10000000 10000000 508 10000000 10000000 10000000 10000000 
0 751 10000000 0 247 299 10000000 10000000 10000000 10000000 644 
0 935 10000000 247 0 239 10000000 10000000 10000000 10000000 609 
0 915 10000000 299 239 0 10000000 10000000 10000000 10000000 400 
0 410 508 10000000 10000000 10000000 0 945 723 10000000 10000000 
0 10000000 10000000 10000000 10000000 10000000 945 0 684 209 839 
0 668 10000000 10000000 10000000 10000000 723 684 0 783 10000000 
0 10000000 10000000 10000000 10000000 10000000 10000000 209 783 0 973 
0 10000000 10000000 10000000 10000000 10000000 10000000 10000000 10000000 10000000 0 
EOF